0 0 0 0 0
1 158 40 18 41
2 95 165 14 56
3 147 79 8 29
4 21 41 9 44
5 127 90 16 10
6 107 106 17 35
7 189 16 16 44
8 112 112 12 36
9 93 156 13 48
10 164 57 11 26
11 107 166 17 30
12 64 40 12 7
13 113 16 9 21
14 153 149 11 32
15 20 116 13 54
16 39 89 11 21
17 171 166 13 39
18 136 15 10 55
19 197 15 16 22
20 42 159 11 21
